Route #1: 864 124 314 500 753 808 961 959 872 420 
Route #2: 234 944 346 388 166 34 270 153 
Route #3: 206 293 706 248 501 763 5 760 607 714 
Route #4: 929 272 660 386 605 695 261 453 686 344 859 
Route #5: 927 273 316 588 514 883 74 85 291 
Route #6: 477 727 275 384 214 757 
Route #7: 556 481 352 216 81 329 567 603 181 338 178 
Route #8: 983 542 792 771 393 87 402 389 11 
Route #9: 518 685 315 105 931 537 201 973 826 224 67 
Route #10: 93 370 225 240 327 862 368 
Route #11: 581 311 855 679 17 734 745 
Route #12: 451 437 838 464 647 161 868 374 65 610 427 590 
Route #13: 407 244 126 349 484 976 967 911 744 735 
Route #14: 176 793 230 779 871 991 252 101 659 59 149 
Route #15: 817 77 613 449 414 803 86 302 
Cost: 246235
